NAME          
ROWS
 N  OBJ
 L  expansion_budget 
 G  PR_lb_{101} 
 G  PR_lb_{102} 
 G  PR_lb_{103} 
 G  PR_lb_{104} 
 G  PR_lb_{105} 
 G  PR_lb_{106} 
 G  PR_lb_{107} 
 G  PR_lb_{108} 
 G  PR_lb_{109} 
 G  PR_lb_{110} 
 G  PR_lb_{111} 
 G  PR_lb_{112} 
 G  PR_lb_{113} 
 G  PR_lb_{114} 
 G  PR_lb_{115} 
 G  PR_lb_{116} 
 G  PR_lb_{117} 
 G  PR_lb_{118} 
 G  PR_lb_{119} 
 G  PR_lb_{120} 
 G  PR_lb_{121} 
 G  PR_lb_{122} 
 G  PR_lb_{123} 
 G  PR_lb_{124} 
COLUMNS
    PR_{101}  expansion_budget 57.62
    PR_{101}  PR_lb_{101} 1
    PR_{101}  OBJ       57.62
    PR_{102}  expansion_budget 57.62
    PR_{102}  PR_lb_{102} 1
    PR_{102}  OBJ       57.62
    PR_{103}  expansion_budget 57.62
    PR_{103}  PR_lb_{103} 1
    PR_{103}  OBJ       57.62
    PR_{104}  expansion_budget 57.62
    PR_{104}  PR_lb_{104} 1
    PR_{104}  OBJ       57.62
    PR_{105}  expansion_budget 57.62
    PR_{105}  PR_lb_{105} 1
    PR_{105}  OBJ       57.62
    PR_{106}  expansion_budget 57.62
    PR_{106}  PR_lb_{106} 1
    PR_{106}  OBJ       57.62
    PR_{107}  expansion_budget 57.62
    PR_{107}  PR_lb_{107} 1
    PR_{107}  OBJ       57.62
    PR_{108}  expansion_budget 57.62
    PR_{108}  PR_lb_{108} 1
    PR_{108}  OBJ       57.62
    PR_{109}  expansion_budget 57.62
    PR_{109}  PR_lb_{109} 1
    PR_{109}  OBJ       57.62
    PR_{110}  expansion_budget 57.62
    PR_{110}  PR_lb_{110} 1
    PR_{110}  OBJ       57.62
    PR_{111}  expansion_budget 57.62
    PR_{111}  PR_lb_{111} 1
    PR_{111}  OBJ       57.62
    PR_{112}  expansion_budget 57.62
    PR_{112}  PR_lb_{112} 1
    PR_{112}  OBJ       57.62
    PR_{113}  expansion_budget 57.62
    PR_{113}  PR_lb_{113} 1
    PR_{113}  OBJ       57.62
    PR_{114}  expansion_budget 57.62
    PR_{114}  PR_lb_{114} 1
    PR_{114}  OBJ       57.62
    PR_{115}  expansion_budget 57.62
    PR_{115}  PR_lb_{115} 1
    PR_{115}  OBJ       57.62
    PR_{116}  expansion_budget 57.62
    PR_{116}  PR_lb_{116} 1
    PR_{116}  OBJ       57.62
    PR_{117}  expansion_budget 57.62
    PR_{117}  PR_lb_{117} 1
    PR_{117}  OBJ       57.62
    PR_{118}  expansion_budget 57.62
    PR_{118}  PR_lb_{118} 1
    PR_{118}  OBJ       57.62
    PR_{119}  expansion_budget 57.62
    PR_{119}  PR_lb_{119} 1
    PR_{119}  OBJ       57.62
    PR_{120}  expansion_budget 57.62
    PR_{120}  PR_lb_{120} 1
    PR_{120}  OBJ       57.62
    PR_{121}  expansion_budget 57.62
    PR_{121}  PR_lb_{121} 1
    PR_{121}  OBJ       57.62
    PR_{122}  expansion_budget 57.62
    PR_{122}  PR_lb_{122} 1
    PR_{122}  OBJ       57.62
    PR_{123}  expansion_budget 57.62
    PR_{123}  PR_lb_{123} 1
    PR_{123}  OBJ       57.62
    PR_{124}  expansion_budget 57.62
    PR_{124}  PR_lb_{124} 1
    PR_{124}  OBJ       57.62
RHS
    rhs       expansion_budget 200
    rhs       PR_lb_{101} 0
    rhs       PR_lb_{102} 0
    rhs       PR_lb_{103} 0
    rhs       PR_lb_{104} 0
    rhs       PR_lb_{105} 0
    rhs       PR_lb_{106} 0
    rhs       PR_lb_{107} 0
    rhs       PR_lb_{108} 0
    rhs       PR_lb_{109} 0
    rhs       PR_lb_{110} 0
    rhs       PR_lb_{111} 0
    rhs       PR_lb_{112} 0
    rhs       PR_lb_{113} 0
    rhs       PR_lb_{114} 0
    rhs       PR_lb_{115} 0
    rhs       PR_lb_{116} 0
    rhs       PR_lb_{117} 0
    rhs       PR_lb_{118} 0
    rhs       PR_lb_{119} 0
    rhs       PR_lb_{120} 0
    rhs       PR_lb_{121} 0
    rhs       PR_lb_{122} 0
    rhs       PR_lb_{123} 0
    rhs       PR_lb_{124} 0
RANGES
BOUNDS
 FR bounds    PR_{101}
 FR bounds    PR_{102}
 FR bounds    PR_{103}
 FR bounds    PR_{104}
 FR bounds    PR_{105}
 FR bounds    PR_{106}
 FR bounds    PR_{107}
 FR bounds    PR_{108}
 FR bounds    PR_{109}
 FR bounds    PR_{110}
 FR bounds    PR_{111}
 FR bounds    PR_{112}
 FR bounds    PR_{113}
 FR bounds    PR_{114}
 FR bounds    PR_{115}
 FR bounds    PR_{116}
 FR bounds    PR_{117}
 FR bounds    PR_{118}
 FR bounds    PR_{119}
 FR bounds    PR_{120}
 FR bounds    PR_{121}
 FR bounds    PR_{122}
 FR bounds    PR_{123}
 FR bounds    PR_{124}
ENDATA
